% seed = 9578902

mint = 45;
% maxt = 98;

nActs = 22;
dur = [0,9,7,3,5,5,2,2,4,1,3,9,2,2,2,10,10,5,7,3,7,0];

nSkills = 4;
sreq = [| 0,0,0,0,
	| 0,3,1,3,
	| 2,0,2,3,
	| 2,2,0,1,
	| 3,1,3,0,
	| 1,3,0,2,
	| 1,3,0,3,
	| 2,3,0,3,
	| 0,1,3,1,
	| 1,3,0,3,
	| 1,1,0,3,
	| 3,1,0,2,
	| 0,2,2,2,
	| 1,3,0,2,
	| 0,2,2,1,
	| 3,1,0,3,
	| 2,1,2,0,
	| 3,1,0,3,
	| 3,2,1,0,
	| 2,2,1,0,
	| 1,1,0,1,
	| 0,0,0,0, |];

nResources = 20;
mastery = [| true,false,true,true,
	| false,true,false,false,
	| false,false,false,true,
	| false,false,true,true,
	| false,true,false,true,
	| true,true,false,true,
	| true,false,false,true,
	| false,true,true,false,
	| false,true,false,true,
	| true,false,false,true,
	| true,false,false,true,
	| true,true,false,true,
	| true,false,false,false,
	| false,false,false,true,
	| true,true,false,true,
	| true,true,true,false,
	| true,true,false,true,
	| false,false,false,true,
	| false,true,true,true,
	| false,false,true,true, |];

nPrecs = 37;
pred = [1,1,1,2,2,3,3,3,4,4,5,5,6,6,7,7,8,8,8,9,10,11,11,12,12,13,14,14,14,15,16,17,17,18,19,20,21];
succ = [2,3,4,10,11,5,7,8,13,6,9,15,12,7,20,21,9,18,19,20,14,17,12,13,14,18,19,15,16,21,18,19,20,21,22,22,22];

nUnrels = 100;
unpred = [2,2,2,2,2,2,2,3,3,3,3,3,3,3,3,3,4,4,4,4,4,4,5,5,5,5,5,5,5,5,5,5,5,5,6,6,6,6,6,7,7,7,7,7,7,7,7,7,7,7,7,8,8,8,8,8,8,8,8,9,9,9,9,9,9,9,9,9,9,9,10,10,10,10,10,12,12,13,13,13,13,13,13,14,14,15,15,15,15,15,16,16,16,17,17,18,18,19,19,20];
unsucc = [3,4,5,6,7,8,9,4,6,10,11,12,13,14,16,17,5,8,9,10,11,17,6,7,8,10,11,12,13,14,16,17,18,19,8,9,10,11,17,8,9,10,11,12,13,14,15,16,17,18,19,10,11,12,13,14,15,16,17,10,11,12,13,14,15,16,17,18,19,21,11,12,13,17,20,17,20,14,15,16,17,19,20,17,20,16,17,18,19,20,17,19,20,18,21,19,20,20,21,21];

USEFUL_RES = [{},
	{1,2,3,4,5,6,7,8,9,10,11,12,14,15,16,17,18,19,20},
	{1,3,4,5,6,7,8,9,10,11,12,13,14,15,16,17,18,19,20},
	{1,2,3,4,5,6,7,8,9,10,11,12,13,14,15,16,17,18,19,20},
	{1,2,4,5,6,7,8,9,10,11,12,13,15,16,17,19,20},
	{1,2,3,4,5,6,7,8,9,10,11,12,13,14,15,16,17,18,19,20},
	{1,2,3,4,5,6,7,8,9,10,11,12,13,14,15,16,17,18,19,20},
	{1,2,3,4,5,6,7,8,9,10,11,12,13,14,15,16,17,18,19,20},
	{1,2,3,4,5,6,7,8,9,10,11,12,14,15,16,17,18,19,20},
	{1,2,3,4,5,6,7,8,9,10,11,12,13,14,15,16,17,18,19,20},
	{1,2,3,4,5,6,7,8,9,10,11,12,13,14,15,16,17,18,19,20},
	{1,2,3,4,5,6,7,8,9,10,11,12,13,14,15,16,17,18,19,20},
	{1,2,3,4,5,6,7,8,9,10,11,12,14,15,16,17,18,19,20},
	{1,2,3,4,5,6,7,8,9,10,11,12,13,14,15,16,17,18,19,20},
	{1,2,3,4,5,6,7,8,9,10,11,12,14,15,16,17,18,19,20},
	{1,2,3,4,5,6,7,8,9,10,11,12,13,14,15,16,17,18,19,20},
	{1,2,4,5,6,7,8,9,10,11,12,13,15,16,17,19,20},
	{1,2,3,4,5,6,7,8,9,10,11,12,13,14,15,16,17,18,19,20},
	{1,2,4,5,6,7,8,9,10,11,12,13,15,16,17,19,20},
	{1,2,4,5,6,7,8,9,10,11,12,13,15,16,17,19,20},
	{1,2,3,4,5,6,7,8,9,10,11,12,13,14,15,16,17,18,19,20},
	{}];

POTENTIAL_ACT = [{2,3,4,5,6,7,8,9,10,11,12,13,14,15,16,17,18,19,20,21},
	{2,4,5,6,7,8,9,10,11,12,13,14,15,16,17,18,19,20,21},
	{2,3,4,6,7,8,9,10,11,12,13,14,15,16,18,21},
	{2,3,4,5,6,7,8,9,10,11,12,13,14,15,16,17,18,19,20,21},
	{2,3,4,5,6,7,8,9,10,11,12,13,14,15,16,17,18,19,20,21},
	{2,3,4,5,6,7,8,9,10,11,12,13,14,15,16,17,18,19,20,21},
	{2,3,4,5,6,7,8,9,10,11,12,13,14,15,16,17,18,19,20,21},
	{2,3,4,5,6,7,8,9,10,11,12,13,14,15,16,17,18,19,20,21},
	{2,3,4,5,6,7,8,9,10,11,12,13,14,15,16,17,18,19,20,21},
	{2,3,4,5,6,7,8,9,10,11,12,13,14,15,16,17,18,19,20,21},
	{2,3,4,5,6,7,8,9,10,11,12,13,14,15,16,17,18,19,20,21},
	{2,3,4,5,6,7,8,9,10,11,12,13,14,15,16,17,18,19,20,21},
	{3,4,5,6,7,8,10,11,12,14,16,17,18,19,20,21},
	{2,3,4,6,7,8,9,10,11,12,13,14,15,16,18,21},
	{2,3,4,5,6,7,8,9,10,11,12,13,14,15,16,17,18,19,20,21},
	{2,3,4,5,6,7,8,9,10,11,12,13,14,15,16,17,18,19,20,21},
	{2,3,4,5,6,7,8,9,10,11,12,13,14,15,16,17,18,19,20,21},
	{2,3,4,6,7,8,9,10,11,12,13,14,15,16,18,21},
	{2,3,4,5,6,7,8,9,10,11,12,13,14,15,16,17,18,19,20,21},
	{2,3,4,5,6,7,8,9,10,11,12,13,14,15,16,17,18,19,20,21}];
